proyfinal/src/viki/013/experimentInOfficeAgust.take6.output/96c9f078-c3ad-4d7e-9f8b-65b2020e29b1.als.out
Reading from standard input... Use '--help' for help.
============================[ Problem Statistics ]=============================
|                                                                             |
|  Number of variables:         87638                                         |
|  Number of clauses:          161767                                         |
|  Parse time:                   0.04 s                                       |
|                                                                             |
============================[ Search Statistics ]==============================
| Conflicts |          ORIGINAL         |          LEARNT          | Progress |
|           |    Vars  Clauses Literals |    Limit  Clauses Lit/Cl |          |
===============================================================================
|       100 |   62341   105027   262400 |    38509      100     15 | 28.865 % |
|       250 |   62341   105027   262400 |    42360      250     17 | 28.865 % |
|       475 |   62341   105027   262400 |    46596      475     37 | 28.865 % |
|       812 |   62341   105027   262400 |    51256      812     60 | 28.865 % |
|      1318 |   62341   105027   262400 |    56382     1318     60 | 28.865 % |
|      2077 |   62341   105027   262400 |    62020     2077     58 | 28.865 % |
|      3216 |   62341   105027   262400 |    68222     3216     67 | 28.865 % |
|      4924 |   62341   105027   262400 |    75044     4924     64 | 28.865 % |
|      7486 |   62341   105027   262400 |    82549     7486     83 | 28.865 % |
|     11330 |   62340   104983   262310 |    90804    11327     81 | 28.866 % |
===============================================================================
restarts              : 61
conflicts             : 14045          (7051 /sec)
decisions             : 46223          (0.00 % random) (23204 /sec)
propagations          : 19094937       (9585557 /sec)
conflict literals     : 1045077        (52.14 % deleted)
Memory used           : 26.39 MB
CPU time              : 1.99205 s

UNSATISFIABLE
